NAME : Unnamed.924.tour
COMMENT : Length = 924
COMMENT : Found by LKH [Keld Helsgaun] Sat Oct 04 21:49:48 2014
TYPE : TOUR
DIMENSION : 50
TOUR_SECTION
1
10
3
8
13
39
30
48
29
26
27
18
22
17
15
23
12
4
9
11
20
2
5
16
7
43
38
37
49
33
46
34
32
14
24
45
42
41
47
44
35
36
28
19
25
40
31
21
6
50
-1
EOF
